NAME          
ROWS
 N  OBJ
 L  c1
 L  c2
 L  c3
 L  c4
 L  c5
COLUMNS
    MARKER    'MARKER'                 'INTORG'
    x[1]      c1        622
    x[1]      c2        731
    x[1]      c3        66
    x[1]      c4        303
    x[1]      c5        310
    x[1]      OBJ       -606
    x[2]      c1        487
    x[2]      c2        539
    x[2]      c3        663
    x[2]      c4        181
    x[2]      c5        772
    x[2]      OBJ       -910
    x[3]      c1        187
    x[3]      c2        760
    x[3]      c3        698
    x[3]      c4        497
    x[3]      c5        734
    x[3]      OBJ       -855
    x[4]      c1        495
    x[4]      c2        339
    x[4]      c3        447
    x[4]      c4        667
    x[4]      c5        43
    x[4]      OBJ       -480
    x[5]      c1        315
    x[5]      c2        92
    x[5]      c3        734
    x[5]      c4        707
    x[5]      c5        331
    x[5]      OBJ       -161
    x[6]      c1        14
    x[6]      c2        529
    x[6]      c3        281
    x[6]      c4        638
    x[6]      c5        578
    x[6]      OBJ       -313
    x[7]      c1        979
    x[7]      c2        929
    x[7]      c3        75
    x[7]      c4        175
    x[7]      c5        822
    x[7]      OBJ       -760
    x[8]      c1        29
    x[8]      c2        28
    x[8]      c3        150
    x[8]      c4        166
    x[8]      c5        374
    x[8]      OBJ       -809
    x[9]      c1        784
    x[9]      c2        277
    x[9]      c3        415
    x[9]      c4        632
    x[9]      c5        558
    x[9]      OBJ       -784
    x[10]     c1        225
    x[10]     c2        775
    x[10]     c3        927
    x[10]     c4        163
    x[10]     c5        397
    x[10]     OBJ       -559
    x[11]     c1        309
    x[11]     c2        393
    x[11]     c3        663
    x[11]     c4        223
    x[11]     c5        141
    x[11]     OBJ       -704
    x[12]     c1        278
    x[12]     c2        315
    x[12]     c3        802
    x[12]     c4        927
    x[12]     c5        809
    x[12]     OBJ       -76
    x[13]     c1        551
    x[13]     c2        421
    x[13]     c3        935
    x[13]     c4        631
    x[13]     c5        385
    x[13]     OBJ       -464
    x[14]     c1        332
    x[14]     c2        823
    x[14]     c3        836
    x[14]     c4        560
    x[14]     c5        321
    x[14]     OBJ       -401
    x[15]     c1        616
    x[15]     c2        276
    x[15]     c3        130
    x[15]     c4        760
    x[15]     c5        759
    x[15]     OBJ       -897
    x[16]     c1        418
    x[16]     c2        372
    x[16]     c3        561
    x[16]     c4        490
    x[16]     c5        877
    x[16]     OBJ       -77
    x[17]     c1        800
    x[17]     c2        346
    x[17]     c3        437
    x[17]     c4        426
    x[17]     c5        794
    x[17]     OBJ       -862
    x[18]     c1        81
    x[18]     c2        21
    x[18]     c3        164
    x[18]     c4        614
    x[18]     c5        204
    x[18]     OBJ       -932
    x[19]     c1        654
    x[19]     c2        616
    x[19]     c3        725
    x[19]     c4        730
    x[19]     c5        863
    x[19]     OBJ       -993
    x[20]     c1        801
    x[20]     c2        112
    x[20]     c3        315
    x[20]     c4        522
    x[20]     c5        559
    x[20]     OBJ       -349
    x[21]     c1        165
    x[21]     c2        774
    x[21]     c3        300
    x[21]     c4        424
    x[21]     c5        338
    x[21]     OBJ       -16
    x[22]     c1        573
    x[22]     c2        783
    x[22]     c3        316
    x[22]     c4        821
    x[22]     c5        910
    x[22]     OBJ       -151
    x[23]     c1        6
    x[23]     c2        612
    x[23]     c3        640
    x[23]     c4        50
    x[23]     c5        909
    x[23]     OBJ       -166
    x[24]     c1        447
    x[24]     c2        500
    x[24]     c3        792
    x[24]     c4        959
    x[24]     c5        953
    x[24]     OBJ       -714
    x[25]     c1        240
    x[25]     c2        362
    x[25]     c3        945
    x[25]     c4        171
    x[25]     c5        357
    x[25]     OBJ       -116
    x[26]     c1        474
    x[26]     c2        191
    x[26]     c3        468
    x[26]     c4        670
    x[26]     c5        160
    x[26]     OBJ       -600
    x[27]     c1        603
    x[27]     c2        609
    x[27]     c3        762
    x[27]     c4        130
    x[27]     c5        32
    x[27]     OBJ       -679
    x[28]     c1        758
    x[28]     c2        512
    x[28]     c3        411
    x[28]     c4        848
    x[28]     c5        999
    x[28]     OBJ       -412
    x[29]     c1        808
    x[29]     c2        65
    x[29]     c3        535
    x[29]     c4        320
    x[29]     c5        139
    x[29]     OBJ       -722
    x[30]     c1        47
    x[30]     c2        331
    x[30]     c3        618
    x[30]     c4        808
    x[30]     c5        970
    x[30]     OBJ       -831
    x[31]     c1        806
    x[31]     c2        212
    x[31]     c3        529
    x[31]     c4        533
    x[31]     c5        100
    x[31]     OBJ       -19
    x[32]     c1        378
    x[32]     c2        923
    x[32]     c3        239
    x[32]     c4        546
    x[32]     c5        437
    x[32]     OBJ       -976
    x[33]     c1        509
    x[33]     c2        468
    x[33]     c3        789
    x[33]     c4        256
    x[33]     c5        323
    x[33]     OBJ       -377
    x[34]     c1        551
    x[34]     c2        154
    x[34]     c3        41
    x[34]     c4        679
    x[34]     c5        712
    x[34]     OBJ       -384
    x[35]     c1        737
    x[35]     c2        87
    x[35]     c3        299
    x[35]     c4        55
    x[35]     c5        938
    x[35]     OBJ       -210
    x[36]     c1        102
    x[36]     c2        667
    x[36]     c3        38
    x[36]     c4        673
    x[36]     c5        21
    x[36]     OBJ       -314
    x[37]     c1        996
    x[37]     c2        918
    x[37]     c3        937
    x[37]     c4        128
    x[37]     c5        262
    x[37]     OBJ       -861
    x[38]     c1        301
    x[38]     c2        168
    x[38]     c3        639
    x[38]     c4        725
    x[38]     c5        574
    x[38]     OBJ       -29
    x[39]     c1        159
    x[39]     c2        613
    x[39]     c3        420
    x[39]     c4        7
    x[39]     c5        716
    x[39]     OBJ       -773
    x[40]     c1        397
    x[40]     c2        86
    x[40]     c3        881
    x[40]     c4        847
    x[40]     c5        205
    x[40]     OBJ       -330
    x[41]     c1        382
    x[41]     c2        365
    x[41]     c3        735
    x[41]     c4        981
    x[41]     c5        93
    x[41]     OBJ       -830
    x[42]     c1        920
    x[42]     c2        684
    x[42]     c3        520
    x[42]     c4        805
    x[42]     c5        778
    x[42]     OBJ       -458
    x[43]     c1        26
    x[43]     c2        932
    x[43]     c3        998
    x[43]     c4        297
    x[43]     c5        575
    x[43]     OBJ       -882
    x[44]     c1        864
    x[44]     c2        521
    x[44]     c3        374
    x[44]     c4        66
    x[44]     c5        356
    x[44]     OBJ       -261
    x[45]     c1        30
    x[45]     c2        422
    x[45]     c3        146
    x[45]     c4        380
    x[45]     c5        732
    x[45]     OBJ       -714
RHS
    rhs       c1        10128
    rhs       c2        10326
    rhs       c3        11698
    rhs       c4        11096
    rhs       c5        11610
RANGES
BOUNDS
 BV bounds    x[1]
 BV bounds    x[2]
 BV bounds    x[3]
 BV bounds    x[4]
 BV bounds    x[5]
 BV bounds    x[6]
 BV bounds    x[7]
 BV bounds    x[8]
 BV bounds    x[9]
 BV bounds    x[10]
 BV bounds    x[11]
 BV bounds    x[12]
 BV bounds    x[13]
 BV bounds    x[14]
 BV bounds    x[15]
 BV bounds    x[16]
 BV bounds    x[17]
 BV bounds    x[18]
 BV bounds    x[19]
 BV bounds    x[20]
 BV bounds    x[21]
 BV bounds    x[22]
 BV bounds    x[23]
 BV bounds    x[24]
 BV bounds    x[25]
 BV bounds    x[26]
 BV bounds    x[27]
 BV bounds    x[28]
 BV bounds    x[29]
 BV bounds    x[30]
 BV bounds    x[31]
 BV bounds    x[32]
 BV bounds    x[33]
 BV bounds    x[34]
 BV bounds    x[35]
 BV bounds    x[36]
 BV bounds    x[37]
 BV bounds    x[38]
 BV bounds    x[39]
 BV bounds    x[40]
 BV bounds    x[41]
 BV bounds    x[42]
 BV bounds    x[43]
 BV bounds    x[44]
 BV bounds    x[45]
ENDATA
